# 41900
param n := 25;
param s := 1;
set E :=  (0,16) (1,17) (1,20) (2,15) (2,22) (3,17) (3,18) (3,20) (3,22) (4,21) (5,15) (6,21) (6,22) (7,20) (8,12) (8,21) (9,18) (9,22) (10,18) (10,19) (11,13) (11,15) (11,23) (12,15) (12,23) (13,18) (14,15) (14,24) (16,19) (18,21) (19,22) (20,24);
